WARNING: for repeatability, setting FPU to use double precision
 -----------------------------------------------------------------------------------------------------------------------
|                                 manysat2.0    4 thread(s) on 8 core(s)                                                |
 -----------------------------------------------------------------------------------------------------------------------
 ===============================================[ Problem Statistics ]==================================================
|                                                                                                                       |
|  Number of cores:                 4                                                                                   |
|  Number of variables:         13408                                                                                   |
|  Number of clauses:          308391                                                                                   |
|  Parse time:                   0.31 s                                                                                 |
|                                                                                                                       |
 ==============================================[ Search Statistics ]====================================================
|   Thread  | Conflicts |          ORIGINAL         |          LEARNT          |  exported  / imported      |  Progress |
|    (id)   |           |    Vars  Clauses Literals |    Limit  Clauses Lit/Cl |  (clauses by restart)      |           |
 =======================================================================================================================
|         0 |       100 |   13021   308315  1771822 |   113048      100      6 |           0  -           0 |  2.886 %  |
|         0 |       250 |   13021   308315  1771822 |   124353      250      6 |           0  -           0 |  2.886 %  |
|         1 |       100 |   13021   308315  1771822 |   113076      551      6 |           0  -         451 |  2.886 %  |
|         0 |       475 |   13021   308315  1771822 |   136789      653      6 |         388  -         178 |  2.886 %  |
|         2 |       100 |   13021   308315  1771822 |   113076      963      6 |         388  -         861 |  2.886 %  |
|         3 |       100 |   13018   308315  1771822 |   113076     1001      6 |           0  -         900 |  2.909 %  |
|         1 |       250 |   13021   308315  1771822 |   124384     1110      6 |         388  -         860 |  2.886 %  |
|         3 |       250 |   13018   308315  1771822 |   124384     1592      6 |           0  -        1341 |  2.909 %  |
|         2 |       250 |   13018   308315  1771822 |   124384     1609      6 |         388  -        1357 |  2.909 %  |
|         1 |       475 |   13018   308315  1771822 |   136822     1808      6 |         388  -        1333 |  2.909 %  |
|         0 |       812 |   13018   308315  1771822 |   150467     1863      6 |         388  -        1051 |  2.909 %  |
|         2 |       475 |   13018   308315  1771822 |   136822     2445      6 |         388  -        1968 |  2.909 %  |
|         3 |       475 |   13018   308315  1771822 |   136822     2557      6 |           0  -        2081 |  2.909 %  |
|         1 |       812 |   13018   308315  1771822 |   150505     2935      6 |         388  -        2123 |  2.909 %  |
|         2 |       812 |   13018   308315  1771822 |   150505     3769      6 |         388  -        2955 |  2.909 %  |
|         3 |       812 |   13018   308315  1771822 |   150505     3862      6 |           0  -        3049 |  2.909 %  |
|         0 |      1318 |   13018   308315  1771822 |   165514     4042      6 |         388  -        2724 |  2.909 %  |
|         1 |      1318 |   13015   308315  1771822 |   165555     4809      6 |         388  -        3492 |  2.931 %  |
|         3 |      1318 |   13015   308315  1771822 |   165555     5577      6 |         391  -        4259 |  2.931 %  |
|         2 |      1318 |   13018   308315  1771822 |   165555     5686      6 |         782  -        4366 |  2.909 %  |
|         0 |      2077 |   13018   308315  1771822 |   182066     7135      6 |         782  -        5057 |  2.909 %  |
|         1 |      2077 |   13015   308315  1771822 |   182111     7421      6 |         391  -        5345 |  2.931 %  |
|         3 |      2077 |   13015   308315  1771822 |   182111     8255      6 |         391  -        6178 |  2.931 %  |
|         2 |      2077 |   13015   308315  1771822 |   182111     8408      6 |         782  -        6328 |  2.931 %  |
|         0 |      3216 |   13015   308315  1771822 |   200272    11581      6 |        1179  -        8364 |  2.931 %  |
|         1 |      3216 |   13011   308315  1771822 |   200322    11654      6 |         785  -        8440 |  2.961 %  |
|         3 |      3216 |   13015   308315  1771822 |   200322    12080      6 |         788  -        8864 |  2.931 %  |
|         2 |      3216 |   13010   308315  1771822 |   200322    12361      6 |         785  -        9143 |  2.968 %  |
|         1 |      4924 |   13009   308315  1771822 |   220354    17149      6 |         785  -       12228 |  2.976 %  |
|         3 |      4924 |   13010   308315  1771822 |   220354    18308      6 |         793  -       13384 |  2.968 %  |
|         0 |      4924 |   13010   308315  1771822 |   220300    18314      6 |        1184  -       13389 |  2.968 %  |
|         2 |      4924 |   13010   308315  1771822 |   220354    18499      6 |         790  -       13573 |  2.968 %  |
|         1 |      7486 |   13007   308315  1771822 |   242389    24428      7 |         791  -       16946 |  2.991 %  |
|         0 |      7486 |   13009   308315  1771822 |   242330    25952      7 |        1191  -       18465 |  2.976 %  |
|         3 |      7486 |   13009   308315  1771822 |   242389    26173      7 |         800  -       18687 |  2.976 %  |
|         2 |      7486 |   13008   308315  1771822 |   242389    26437      7 |         791  -       18950 |  2.983 %  |
|         1 |     11330 |   13006   308315  1771822 |   266628    33431      9 |         791  -       22106 |  2.998 %  |
|         3 |     11330 |   13007   308315  1771822 |   266628    37259      7 |         802  -       25929 |  2.991 %  |
|         0 |     11330 |   13007   308315  1771822 |   266563    38768      8 |        1193  -       27437 |  2.991 %  |
|         2 |     11330 |   13007   308315  1771822 |   266628    38855      7 |         793  -       27524 |  2.991 %  |
|         1 |     17096 |   13005   308315  1771822 |   293291    49392     10 |         791  -       32301 |  3.006 %  |
|         3 |     17096 |   13006   308315  1771822 |   293291    53685      8 |         803  -       36589 |  2.998 %  |
|         2 |     17096 |   13006   308315  1771822 |   293291    57085      7 |         794  -       39988 |  2.998 %  |
|         0 |     17096 |   13006   308315  1771822 |   293219    59157      8 |        1194  -       42060 |  2.998 %  |
|         1 |     25745 |   13005   308315  1771822 |   322621    67028     11 |         791  -       41288 |  3.006 %  |
|         3 |     25745 |   13005   308315  1771822 |   322621    75250      9 |         803  -       49505 |  3.006 %  |
|         2 |     25745 |   13005   308315  1771822 |   322621    75982      8 |         794  -       50236 |  3.006 %  |
|         0 |     25745 |   13005   308315  1771822 |   322541    87531      9 |        1195  -       61784 |  3.006 %  |
|         1 |     38719 |   13004   308115  1770920 |   354883    97481     12 |         791  -       58774 |  3.013 %  |
|         3 |     38719 |   13005   308120  1770933 |   354883   108522     10 |         804  -       69809 |  3.006 %  |
|         2 |     38719 |   13005   308120  1770933 |   354883   111916      9 |         795  -       73202 |  3.006 %  |
|         0 |     38719 |   13004   308115  1770920 |   354795   118793     10 |        1195  -       80078 |  3.013 %  |
|         1 |     58180 |   13004   308115  1770920 |   390371   146200     12 |         791  -       88032 |  3.013 %  |
|         3 |     58180 |   13004   308120  1770933 |   390371   154365     10 |         804  -       96191 |  3.013 %  |
|         2 |     58180 |   13004   308120  1770933 |   390371   159068     10 |         795  -      100893 |  3.013 %  |
|         0 |     58180 |   13004   308115  1770920 |   390275   163660     11 |        1195  -      105484 |  3.013 %  |
|         2 |     87372 |   13004   308115  1770920 |   429408   213087     11 |         795  -      125720 |  3.013 %  |
|         0 |     87372 |   13004   308115  1770920 |   429302   223209     13 |        1195  -      135841 |  3.013 %  |
|         1 |     87372 |   13004   308115  1770920 |   429408   222290     13 |         791  -      134930 |  3.013 %  |
|         3 |     87372 |   13004   308115  1770920 |   429408   219534     12 |        1209  -      132168 |  3.013 %  |
|         2 |    131161 |   13001   308069  1770751 |   472349   300100     14 |        1216  -      168949 |  3.036 %  |
|         1 |    131161 |   13004   308115  1770920 |   472349   305203     15 |        1217  -      174054 |  3.013 %  |
|         0 |    131161 |   13003   308110  1770906 |   472233   319051     14 |        1216  -      187895 |  3.021 %  |
|         3 |    131161 |   13001   308069  1770751 |   472349   309295     15 |        1214  -      178146 |  3.036 %  |
|         2 |    196845 |   13001   308069  1770751 |   519584   425101     15 |        1216  -      228266 |  3.036 %  |
|         0 |    196845 |   13000   308051  1770684 |   519456   431966     16 |        1216  -      235132 |  3.043 %  |
|         1 |    196845 |   13001   308069  1770751 |   519584   433594     18 |        1221  -      236765 |  3.036 %  |
|         3 |    196845 |   13001   308069  1770751 |   519584   437721     19 |        1218  -      240888 |  3.036 %  |
|         2 |    295371 |   13001   308069  1770751 |   571542   103671     17 |        1220  -      293578 |  3.036 %  |
|         0 |    295371 |   12997   308051  1770684 |   571401   119963     17 |        1216  -      307047 |  3.065 %  |
|         1 |    295371 |   12998   308021  1770571 |   571542   211198     20 |        1223  -      370837 |  3.058 %  |
|         3 |    295371 |   12998   308021  1770571 |   571542   229018     15 |        1220  -      384456 |  3.058 %  |
|         0 |    443160 |   12997   308051  1770684 |   628542   403912     21 |        1216  -      443207 |  3.065 %  |
|         2 |    443160 |   12998   308021  1770571 |   628697   398239     20 |        1222  -      440361 |  3.058 %  |
|         1 |    443160 |   12997   308017  1770560 |   628697   445569     23 |        1224  -      457419 |  3.065 %  |
|         3 |    443160 |   12997   308017  1770560 |   628697   491251     34 |        1229  -      498900 |  3.065 %  |
|         0 |    664843 |   12993   308017  1770560 |   691396    88516     34 |        1223  -      517037 |  3.095 %  |
|         2 |    664843 |   12993   308000  1770513 |   691566   264590     37 |        1224  -      661844 |  3.095 %  |
|         3 |    664843 |   12993   308000  1770513 |   691566   303759     26 |        1229  -      684327 |  3.095 %  |
|         0 |    997368 |   12993   308000  1770513 |   760536   588945     28 |        1223  -      684943 |  3.095 %  |
|         1 |    664843 |   12996   308013  1770549 |   691566   469670     48 |        1232  -      804339 |  3.073 %  |
|         3 |    997368 |   12993   308000  1770513 |   760723   104200     22 |        1229  -      810075 |  3.095 %  |
|         2 |    997368 |   12993   308000  1770513 |   760723   145603     25 |        1224  -      874474 |  3.095 %  |
|         1 |    997368 |   12993   308000  1770513 |   760723   396922     26 |        1232  -     1050834 |  3.095 %  |
|         0 |   1496156 |   12993   308000  1770513 |   836589   673699     28 |        1223  -      993782 |  3.095 %  |
|         3 |   1496156 |   12993   308000  1770513 |   836795   136598     37 |        1229  -     1083000 |  3.095 %  |
|         1 |   1496156 |   12993   308000  1770513 |   836795   435907     31 |        1232  -     1321793 |  3.095 %  |
|         2 |   1496156 |   12993   308000  1770513 |   836795   555033     47 |        1224  -     1423196 |  3.095 %  |
|         0 |   2244338 |   12993   308000  1770513 |   920248   292999     27 |        1223  -     1474142 |  3.095 %  |
|         3 |   2244338 |   12993   308000  1770513 |   920475   474852     22 |        1229  -     1470399 |  3.095 %  |
|         1 |   2244338 |   12993   308000  1770513 |   920475   136881     33 |        1232  -     1845802 |  3.095 %  |
|         2 |   2244338 |   12993   308000  1770513 |   920475   404114    148 |        1224  -     2055472 |  3.095 %  |
|         0 |   3366612 |   12993   308000  1770513 |  1012273   116033     32 |        1223  -     1936316 |  3.095 %  |
|         3 |   3366612 |   12993   308000  1770513 |  1012522   381168     32 |        1229  -     1997802 |  3.095 %  |
|         2 |   3366612 |   12990   307987  1770477 |  1012522   440562     32 |        1236  -     2714978 |  3.118 %  |
|         0 |   5050023 |   12993   308000  1770513 |  1113500   651262     31 |        1239  -     2680330 |  3.095 %  |
|         1 |   3366612 |   12990   307987  1770477 |  1012522   601361     34 |        1236  -     2895887 |  3.118 %  |
|         3 |   5050023 |   12993   308000  1770513 |  1113775   814074     27 |        1245  -     2698852 |  3.095 %  |
|         2 |   5050023 |   12990   307987  1770477 |  1113775   202098     72 |        1236  -     3739605 |  3.118 %  |
|         1 |   5050023 |   12990   307987  1770477 |  1113775   555416     42 |        1236  -     4078191 |  3.118 %  |
|         0 |   7575139 |   12990   307987  1770477 |  1224850   389030     39 |        1239  -     4145670 |  3.118 %  |
|         3 |   7575139 |   12990   307987  1770477 |  1225152   334009     35 |        1245  -     3938296 |  3.118 %  |
